
  12   12
  10   10   10   10   10   10   10   10   10   10   10   10

   0   0   0   0   0   0   0   0   0   0   0   0   0   5 2 3 4 7 11 
   3   0   1   1   0   0   0   0   1   1   0   0   0   2 6 5 
   8   0   0   6   0   1   5   0   6  10   0   1   1   2 6 5 
   5   0   0   0   0   0   0   0   0   0   2   0   0   2 10 9 
   7   0   4   0   1   7   0   0   0   0   0   0   0   1 9 
   2   0   6   0   0   0   0   0   0   0   5   0   0   1 8 
   8   1   0   0   0   0   0   0   0   4   0   9   0   1 8 
   9   9   2   0   0   7   0   0   0   0   3   0   0   1 12
   6   0   9   0   0   4   0   0   0   0  10   0   0   1 12
   3   0   0   8   9   0   0   0   8   0   0   0   6   1 12
   3   0   8   0   0   6   0   0   0   0   5   0   8   1 12
   0   0   0   0   0   0   0   0   0   0   0   0   0   0 
